86 86 86 77 77 86 86 77 86 77 86 86 77 77 77 77 77 86 77 86 86 77 77 77 86 86 86 86 77 77 77 86 86 86 77 86 77 86 86 86 86 77 86 77 77 86 77 86 77 86 77 77 86 77 77 77 86 86 86 77 86 77 86 77 86 86 86 77 86 77 86 77 86 77 77 86 77 86 77 77 77 77 77 86 86 77 86 77 77 77 77 86 77 77 77 77 86 86 77 77 